p edge 60 576 46
e 1 2
e 1 3
e 1 4
e 1 5
e 1 6
e 1 7
e 1 8
e 1 9
e 1 10
e 1 11
e 1 12
e 1 13
e 1 14
e 1 15
e 1 16
e 1 17
e 1 19
e 1 21
e 1 22
e 1 23
e 1 24
e 1 25
e 1 26
e 1 27
e 1 28
e 1 29
e 1 30
e 1 32
e 1 34
e 1 36
e 1 37
e 1 39
e 1 41
e 1 42
e 1 47
e 1 48
e 1 49
e 1 52
e 1 53
e 1 54
e 1 55
e 1 58
e 1 59
e 2 14
e 2 20
e 2 21
e 2 26
e 2 27
e 2 32
e 2 35
e 2 37
e 2 38
e 2 42
e 2 46
e 2 50
e 2 53
e 2 59
e 3 14
e 3 15
e 3 16
e 3 17
e 3 18
e 3 24
e 3 26
e 3 29
e 3 40
e 3 42
e 3 47
e 3 48
e 3 50
e 3 56
e 4 14
e 4 15
e 4 16
e 4 17
e 4 18
e 4 19
e 4 20
e 4 22
e 4 23
e 4 24
e 4 25
e 4 26
e 4 29
e 4 30
e 4 32
e 4 33
e 4 39
e 4 45
e 4 49
e 4 53
e 4 59
e 4 60
e 5 14
e 5 15
e 5 16
e 5 17
e 5 18
e 5 19
e 5 22
e 5 24
e 5 25
e 5 26
e 5 43
e 5 52
e 5 56
e 5 59
e 6 14
e 6 15
e 6 16
e 6 21
e 6 22
e 6 23
e 6 24
e 6 28
e 6 30
e 6 31
e 6 33
e 6 38
e 6 43
e 6 44
e 6 50
e 6 58
e 7 14
e 7 15
e 7 16
e 7 17
e 7 18
e 7 19
e 7 25
e 7 26
e 7 29
e 7 30
e 7 38
e 7 41
e 7 42
e 7 44
e 7 49
e 7 52
e 7 58
e 7 60
e 8 14
e 8 15
e 8 16
e 8 18
e 8 19
e 8 20
e 8 21
e 8 33
e 8 34
e 8 44
e 8 48
e 8 52
e 9 14
e 9 15
e 9 16
e 9 17
e 9 20
e 9 21
e 9 22
e 9 23
e 9 24
e 9 25
e 9 30
e 9 33
e 9 34
e 9 35
e 9 37
e 9 40
e 9 43
e 9 52
e 9 55
e 10 14
e 10 15
e 10 16
e 10 17
e 10 18
e 10 19
e 10 20
e 10 21
e 10 23
e 10 26
e 10 28
e 10 29
e 10 35
e 10 37
e 10 46
e 10 57
e 10 58
e 11 14
e 11 15
e 11 16
e 11 17
e 11 18
e 11 19
e 11 20
e 11 28
e 11 29
e 11 31
e 11 32
e 11 35
e 11 36
e 11 44
e 11 50
e 11 56
e 12 17
e 12 18
e 12 20
e 12 22
e 12 29
e 12 33
e 12 38
e 12 54
e 12 60
e 13 14
e 13 15
e 13 22
e 13 49
e 14 15
e 14 16
e 14 17
e 14 18
e 14 19
e 14 20
e 14 21
e 14 22
e 14 23
e 14 24
e 14 25
e 14 27
e 14 28
e 14 29
e 14 30
e 14 31
e 14 32
e 14 33
e 14 34
e 14 36
e 14 37
e 14 38
e 14 40
e 14 42
e 14 43
e 14 47
e 14 48
e 14 51
e 14 52
e 14 58
e 15 16
e 15 17
e 15 18
e 15 19
e 15 20
e 15 21
e 15 22
e 15 23
e 15 25
e 15 26
e 15 27
e 15 29
e 15 30
e 15 33
e 15 34
e 15 35
e 15 36
e 15 38
e 15 40
e 15 41
e 15 42
e 15 48
e 15 50
e 15 52
e 15 53
e 15 59
e 16 17
e 16 18
e 16 19
e 16 21
e 16 23
e 16 24
e 16 25
e 16 27
e 16 28
e 16 30
e 16 31
e 16 32
e 16 33
e 16 36
e 16 37
e 16 38
e 16 43
e 16 44
e 16 45
e 16 47
e 16 53
e 16 54
e 16 57
e 17 18
e 17 19
e 17 20
e 17 21
e 17 22
e 17 23
e 17 24
e 17 26
e 17 27
e 17 29
e 17 35
e 17 41
e 17 42
e 17 43
e 17 44
e 17 46
e 17 48
e 17 57
e 17 60
e 18 19
e 18 20
e 18 23
e 18 24
e 18 25
e 18 27
e 18 28
e 18 30
e 18 31
e 18 34
e 18 35
e 18 36
e 18 38
e 18 39
e 18 40
e 18 43
e 18 45
e 18 47
e 18 49
e 18 50
e 18 51
e 18 53
e 18 54
e 18 59
e 18 60
e 19 20
e 19 21
e 19 22
e 19 23
e 19 24
e 19 25
e 19 26
e 19 27
e 19 28
e 19 29
e 19 30
e 19 31
e 19 32
e 19 37
e 19 39
e 19 43
e 19 45
e 19 50
e 19 51
e 19 53
e 19 56
e 20 21
e 20 22
e 20 23
e 20 38
e 20 43
e 20 50
e 20 54
e 20 60
e 21 25
e 21 28
e 21 33
e 21 35
e 21 37
e 21 41
e 21 45
e 21 48
e 21 51
e 21 52
e 22 25
e 22 27
e 22 28
e 22 30
e 22 31
e 22 34
e 22 36
e 22 39
e 22 44
e 22 46
e 22 47
e 22 48
e 22 49
e 22 52
e 22 53
e 22 55
e 22 59
e 23 24
e 23 26
e 23 28
e 23 29
e 23 30
e 23 31
e 23 32
e 23 34
e 23 39
e 23 46
e 23 48
e 23 55
e 24 26
e 24 27
e 24 31
e 24 32
e 24 34
e 24 36
e 24 39
e 24 40
e 24 41
e 24 44
e 24 45
e 24 46
e 24 47
e 24 48
e 24 56
e 24 59
e 25 27
e 25 28
e 25 34
e 25 35
e 25 38
e 25 41
e 25 44
e 25 45
e 25 47
e 25 49
e 25 53
e 25 57
e 26 27
e 26 31
e 26 32
e 26 33
e 26 34
e 26 36
e 26 39
e 26 42
e 26 45
e 26 49
e 26 55
e 26 57
e 27 31
e 27 33
e 27 39
e 27 41
e 27 46
e 27 47
e 28 31
e 28 32
e 28 35
e 28 41
e 28 50
e 28 51
e 28 56
e 28 57
e 29 32
e 29 33
e 29 35
e 29 38
e 29 45
e 29 46
e 29 47
e 29 51
e 29 60
e 30 37
e 30 41
e 30 46
e 30 51
e 30 56
e 30 57
e 30 58
e 31 36
e 31 39
e 31 42
e 31 47
e 31 48
e 31 49
e 31 55
e 31 56
e 32 34
e 32 37
e 32 39
e 32 41
e 32 42
e 32 46
e 32 47
e 32 48
e 32 49
e 32 50
e 32 54
e 33 36
e 33 37
e 33 39
e 33 40
e 33 44
e 33 55
e 33 58
e 33 59
e 33 60
e 34 35
e 34 36
e 34 40
e 34 43
e 34 44
e 34 45
e 34 49
e 34 54
e 34 55
e 35 38
e 35 40
e 35 41
e 35 44
e 35 45
e 35 50
e 35 55
e 35 58
e 36 37
e 36 40
e 36 42
e 36 60
e 37 42
e 37 43
e 37 45
e 37 46
e 37 49
e 37 51
e 37 54
e 37 56
e 38 40
e 38 51
e 39 40
e 39 52
e 40 53
e 41 52
e 42 43
e 42 51
e 42 54
e 42 58
e 43 51
e 43 57
e 44 46
e 44 56
e 45 51
e 45 55
e 45 57
e 45 58
e 46 53
e 47 54
e 48 53
e 48 54
e 48 58
e 49 50
e 49 52
e 49 59
e 50 55
e 50 57
e 51 58
e 52 55
e 52 56
e 52 59
e 52 60
e 53 54
e 53 57
e 55 56
e 55 60
e 56 57
e 56 60
e 58 59
